num_offers = 25;
num_halls = 10;
start=[31,72,45,9,81,25,17,16,1,65,31,6,20,36,31,34,7,4,16,48,43,44,12,39,68];
end=[93,92,77,48,97,55,23,39,59,78,45,46,82,69,94,77,96,25,87,85,52,55,75,69,74];
price=[2159,1894,2350,3552,392,2612,621,785,2000,1247,1493,1513,720,2709,5947,2981,4732,1237,1771,1017,173,979,3110,1581,633];
requirement=[897,738,740,812,685,494,424,738,962,366,208,553,534,615,568,668,517,450,663,376,630,644,877,468,409];
capacity=[200,910,698,959,791,338,751,890,541,237];
